Reading model...
...model read.
creating competitive generators file...
...competitive generators recorded.
Loading data...
.. real-time data read.
Compiling instance...
0.0
0.0
0.0
0.0
...instance created.
Creating Offer Mitigation (model will solve as dispatch if TRUE)...
...storage offer mitigation file created
Converting model to MPEC...
...converted
NOTE: initial MIP solve with only storage competitive to get feasible solution
Solving...

Welcome to IBM(R) ILOG(R) CPLEX(R) Interactive Optimizer 12.9.0.0
  with Simplex, Mixed Integer & Barrier Optimizers
5725-A06 5725-A29 5724-Y48 5724-Y49 5724-Y54 5724-Y55 5655-Y21
Copyright IBM Corp. 1988, 2019.  All Rights Reserved.

Type 'help' for a list of available commands.
Type 'help' followed by a command name for more
information on commands.

CPLEX> Logfile 'cplex.log' closed.
Logfile 'C:\Users\llavin\Desktop\test826\logs\tmphmfpfwuj.cplex.log' open.
CPLEX> New value for parallel optimization mode: -1
CPLEX> New value for mixed integer optimality gap tolerance: 0.05
CPLEX> New value for emphasis for MIP optimization: 1
CPLEX> New value for integrality tolerance: 1e-10
CPLEX> New value for deterministic time limit in ticks: 50000
CPLEX> Problem 'C:\Users\llavin\Desktop\test826\logs\tmphwm91tu5.pyomo.lp' read.
Read time = 0.53 sec. (28.54 ticks)
CPLEX> Problem name         : C:\Users\llavin\Desktop\test826\logs\tmphwm91tu5.pyomo.lp
Objective sense      : Maximize
Variables            :  107783  [Nneg: 1,  Box: 44058,  Free: 8928,
                                 Binary: 54796]
Objective nonzeros   :   19009
Linear constraints   :  246901  [Less: 82864,  Greater: 118424,  Equal: 45613]
  Nonzeros           :  619805
  RHS nonzeros       :  136512

Variables            : Min LB: -5000.000        Max UB: 1000000.       
Objective nonzeros   : Min   : 0.02500000       Max   : 208.3333       
Linear constraints   :
  Nonzeros           : Min   : 0.02500000       Max   : 1000000.       
  RHS nonzeros       : Min   : 0.02500000       Max   : 1000000.       
CPLEX> CPXPARAM_Parallel                                -1
CPXPARAM_Emphasis_MIP                            1
CPXPARAM_DetTimeLimit                            50000
CPXPARAM_MIP_Tolerances_MIPGap                   0.050000000000000003
CPXPARAM_MIP_Tolerances_Integrality              1e-10
Tried aggregator 3 times.
MIP Presolve eliminated 173739 rows and 34727 columns.
MIP Presolve added 7723 rows and 0 columns.
MIP Presolve modified 52954 coefficients.
Aggregator did 26019 substitutions.
Reduced MIP has 54866 rows, 46653 columns, and 157325 nonzeros.
Reduced MIP has 18467 binaries, 0 generals, 0 SOSs, and 0 indicators.
Presolve time = 0.63 sec. (351.16 ticks)
Probing fixed 842 vars, tightened 17095 bounds.
Probing time = 0.44 sec. (18.84 ticks)
Tried aggregator 2 times.
MIP Presolve eliminated 1878 rows and 1691 columns.
MIP Presolve modified 7154 coefficients.
Aggregator did 98 substitutions.
Reduced MIP has 52890 rows, 44864 columns, and 151569 nonzeros.
Reduced MIP has 17623 binaries, 0 generals, 0 SOSs, and 0 indicators.
Presolve time = 0.30 sec. (264.34 ticks)
Probing fixed 0 vars, tightened 336 bounds.
Probing time = 0.61 sec. (19.52 ticks)
Clique table members: 87259.
MIP emphasis: integer feasibility.
MIP search method: dynamic search.
Parallel mode: opportunistic, using up to 32 threads.
Root relaxation solution time = 1.64 sec. (2803.69 ticks)

        Nodes                                         Cuts/
   Node  Left     Objective  IInf  Best Integer    Best Bound    ItCnt     Gap

      0     0        0.0000   236                      0.0000    11975         
*     0+    0                            0.0000        0.0000             0.00%
      0     0        cutoff              0.0000        0.0000    11975    0.00%
Elapsed time = 5.83 sec. (5323.71 ticks, tree = 0.01 MB, solutions = 1)

Root node processing (before b&c):
  Real time             =    5.88 sec. (5327.71 ticks)
Parallel b&c, 32 threads:
  Real time             =    0.00 sec. (0.00 ticks)
  Sync time (average)   =    0.00 sec.
  Wait time (average)   =    0.00 sec.
                          ------------
Total (root+branch&cut) =    5.88 sec. (5327.71 ticks)

Solution pool: 1 solution saved.

MIP - Integer optimal solution:  Objective =  4.9495838539e-09
Solution time =    5.94 sec.  Iterations = 11975  Nodes = 0
Deterministic time = 5328.02 ticks  (897.43 ticks/sec)

CPLEX> Incumbent solution written to file 'C:\Users\llavin\Desktop\test826\logs\tmpvsuxa0u3.cplex.sol'.
CPLEX> NOTE: no warmstart specified for MIP iteration, default behavior is true
NOTE: resolving with all competitive generators using storage-only solution to warmstart
Solving...

Welcome to IBM(R) ILOG(R) CPLEX(R) Interactive Optimizer 12.9.0.0
  with Simplex, Mixed Integer & Barrier Optimizers
5725-A06 5725-A29 5724-Y48 5724-Y49 5724-Y54 5724-Y55 5655-Y21
Copyright IBM Corp. 1988, 2019.  All Rights Reserved.

Type 'help' for a list of available commands.
Type 'help' followed by a command name for more
information on commands.

CPLEX> Logfile 'cplex.log' closed.
Logfile 'C:\Users\llavin\Desktop\test826\logs\tmpe32ndqqh.cplex.log' open.
CPLEX> New value for parallel optimization mode: -1
CPLEX> New value for mixed integer optimality gap tolerance: 0.05
CPLEX> New value for emphasis for MIP optimization: 1
CPLEX> New value for integrality tolerance: 1e-10
CPLEX> New value for deterministic time limit in ticks: 50000
CPLEX> Problem 'C:\Users\llavin\Desktop\test826\logs\tmpbmsav7qz.pyomo.lp' read.
Read time = 0.55 sec. (28.59 ticks)
CPLEX> MIP start file 'C:\Users\llavin\Desktop\test826\logs\tmpko43f2h1.cplex.mst' read.
CPLEX> Problem name         : C:\Users\llavin\Desktop\test826\logs\tmpbmsav7qz.pyomo.lp
Objective sense      : Maximize
Variables            :  109223  [Nneg: 1,  Box: 45498,  Free: 8928,
                                 Binary: 54796]
Objective nonzeros   :   20401
Linear constraints   :  246901  [Less: 82864,  Greater: 118424,  Equal: 45613]
  Nonzeros           :  619805
  RHS nonzeros       :  136512

Variables            : Min LB: -5000.000        Max UB: 1000000.       
Objective nonzeros   : Min   : 0.02500000       Max   : 208.3333       
Linear constraints   :
  Nonzeros           : Min   : 0.02500000       Max   : 1000000.       
  RHS nonzeros       : Min   : 0.02500000       Max   : 1000000.       
CPLEX> CPXPARAM_Parallel                                -1
CPXPARAM_Emphasis_MIP                            1
CPXPARAM_DetTimeLimit                            50000
CPXPARAM_MIP_Tolerances_MIPGap                   0.050000000000000003
CPXPARAM_MIP_Tolerances_Integrality              1e-10
Warning:  No solution found from 1 MIP starts.
Retaining values of one MIP start for possible repair.
Tried aggregator 3 times.
MIP Presolve eliminated 173739 rows and 36167 columns.
MIP Presolve added 7723 rows and 0 columns.
MIP Presolve modified 52954 coefficients.
Aggregator did 26019 substitutions.
Reduced MIP has 54866 rows, 46653 columns, and 157325 nonzeros.
Reduced MIP has 18467 binaries, 0 generals, 0 SOSs, and 0 indicators.
Presolve time = 0.63 sec. (351.90 ticks)
Probing fixed 842 vars, tightened 17095 bounds.
Probing time = 0.44 sec. (18.84 ticks)
Tried aggregator 2 times.
MIP Presolve eliminated 1878 rows and 1691 columns.
MIP Presolve modified 7154 coefficients.
Aggregator did 98 substitutions.
Reduced MIP has 52890 rows, 44864 columns, and 151569 nonzeros.
Reduced MIP has 17623 binaries, 0 generals, 0 SOSs, and 0 indicators.
Presolve time = 0.30 sec. (264.36 ticks)
Probing fixed 0 vars, tightened 336 bounds.
Probing time = 0.58 sec. (19.52 ticks)
Clique table members: 87259.
MIP emphasis: integer feasibility.
MIP search method: dynamic search.
Parallel mode: opportunistic, using up to 32 threads.
Root relaxation solution time = 1.66 sec. (2868.12 ticks)

        Nodes                                         Cuts/
   Node  Left     Objective  IInf  Best Integer    Best Bound    ItCnt     Gap

      0     0     4365.5361   313                   4365.5361    12518         
      0     0     4364.9670    43                   Cuts: 145    12611         
      0     0     4364.8582    47                    Cuts: 38    12630         
      0     0     4364.8018    46                     Cuts: 7    12638         
Repair heuristic found nothing.
      0     9     4309.8522    32                     Cuts: 4    12662         
Elapsed time = 11.39 sec. (5859.89 ticks, tree = 0.02 MB, solutions = 0)
    251    70     4268.3735    35                   4358.9897    12943         
    556   152     4287.6479    35                   4358.9897    13412         
    807   549     2890.3488    36                   4358.9897    16666         
   1055   791     4172.6767    24                   4358.9897    21830         
   1269   912     3462.0578    24                   4358.9897    24908         
   1474  1415     1109.1378    35                   4358.9897    37420         
   1739  1670     4339.7703    38                   4358.9897    42411         
   2026  1394     4128.3550    15                   4358.9897    37084         
   2315  1973     4279.9983    32                   4358.9897    49008         
   3291  2590     2297.7430    24                   4358.9897    61045         
Elapsed time = 31.98 sec. (8968.94 ticks, tree = 34.18 MB, solutions = 0)
   4220  3955     4087.0878    24                   4358.9897    96577         
   5142  4398     4074.1819    13                   4358.9897   107115         
   5730  5686     4231.7506    18                   4358.9897   155399         
   6706   427     4143.7043    22                   4358.9897   166867         
   7922  1192     4247.7637    21                   4358.9897   186433         
   9151  1740     4075.6227    19                   4358.9897   198740         
  10268  2691     4244.5316    23                   4358.9897   212144         
  11230  4206     4289.4519    23                   4358.9897   245174         
  12274  4606     4067.4262     9                   4358.9897   255057         
* 13028+ 1939                         3783.9559     4358.9897            15.20%
Elapsed time = 107.34 sec. (25562.21 ticks, tree = 44.57 MB, solutions = 2)
* 13423+ 1899                         3976.9438     4358.9897             9.61%
  14334  1960     3880.8983     3     3976.9438     4358.9897   287618    9.61%
  15966  2534     3998.2309    17     3976.9438     4358.9897   316032    9.61%
* 16016+ 1919                         3990.7073     4358.9897             9.23%
  17541  2893    infeasible           3990.7073     4358.9897   318488    9.23%
  19071  4475     4027.7501     1     3999.5793     4358.9897   324795    8.99%
* 19088  4732      integral     0     4033.6809     4358.9897   325837    8.06%
  20731  5456     4160.9754     9     4033.6809     4358.9897   330006    8.06%
  22475  5966     4040.9584     8     4033.6809     4358.9897   339652    8.06%
  24357  6748     4040.9584     8     4033.6809     4358.9897   344122    8.06%
  26088  8234     4128.3976    10     4033.6809     4358.9897   350943    8.06%
  27795  8099     4119.2164    16     4033.6809     4358.8845   350209    8.06%
  29559 10041     4128.3976     9     4033.6809     4358.8845   361720    8.06%
Elapsed time = 184.59 sec. (35103.94 ticks, tree = 185.70 MB, solutions = 10)
  31467 10989     4103.0754    14     4033.6809     4358.8845   365910    8.06%
  33596 12680     4124.0882     7     4033.6809     4358.8845   373796    8.06%
  35751 16866     4134.1746     7     4033.6809     4358.8845   392703    8.06%
  37818 18126     4212.4534    14     4033.6809     4358.8845   398597    8.06%
  39869 16840     4257.0560    24     4033.6809     4358.8845   392774    8.06%
  41892 17977     4054.7827    13     4033.6809     4358.8845   398044    8.06%
  43675 19066     4111.3485    10     4033.6809     4358.8845   402938    8.06%
  45449 22878     4135.7434     7     4033.6809     4358.8845   419739    8.06%
  47208 24645     4159.3530    11     4033.6809     4358.8845   427319    8.06%
  49060 29319     4153.6451    19     4033.6809     4358.8845   446890    8.06%
Elapsed time = 251.31 sec. (44645.26 ticks, tree = 539.97 MB, solutions = 10)
  51006 26354     4155.0507    26     4033.6809     4358.8845   434904    8.06%
  53131 30159     4156.6802    12     4033.6809     4358.8845   450632    8.06%
  55093 28832     4145.9339    26     4033.6809     4358.8845   445152    8.06%
  56770 31227     4145.5423    19     4033.6809     4358.8845   454948    8.06%
  57926 33054     4168.8868    17     4033.6809     4358.8845   463473    8.06%

Clique cuts applied:  2
Cover cuts applied:  22
Flow cuts applied:  27
Mixed integer rounding cuts applied:  1
Gomory fractional cuts applied:  7

Root node processing (before b&c):
  Real time             =    7.30 sec. (5791.51 ticks)
Parallel b&c, 32 threads:
  Real time             =  244.94 sec. (44258.79 ticks)
  Sync time (average)   =    2.58 sec.
  Wait time (average)   =    0.41 sec.
                          ------------
Total (root+branch&cut) =  252.23 sec. (50050.30 ticks)

Solution pool: 10 solutions saved.

MIP - Deterministic time limit exceeded, integer feasible:  Objective =  4.0336808641e+03
Current MIP best bound =  4.3227307901e+03 (gap = 289.05, 7.17%)
Solution time =  252.28 sec.  Iterations = 489329  Nodes = 58309 (38933)
Deterministic time = 50050.61 ticks  (198.39 ticks/sec)

CPLEX> Incumbent solution written to file 'C:\Users\llavin\Desktop\test826\logs\tmpjs8s0w_9.cplex.sol'.
CPLEX> Exporting results... 
